solution status: optimal solution found
objective value:                                    0
$_19_y                                            -25 	(obj:0)
$_19_z                                              4 	(obj:0)
$_56_y                                            -24 	(obj:0)
$_56_z                                             23 	(obj:0)
$_13__0_y                                         -25 	(obj:0)
$_13__0_z                                          25 	(obj:0)
$_11__0_y                                          -9 	(obj:0)
$_11__0_z                                         -25 	(obj:0)
$_16__0_y                                         -23 	(obj:0)
$_16__0_z                                          24 	(obj:0)
$_15__0_y                                         -24 	(obj:0)
$_15__0_z                                          24 	(obj:0)
$_34_y                                            -23 	(obj:0)
$_34_z                                             23 	(obj:0)
$_17_y                                            -25 	(obj:0)
$_17_z                                             24 	(obj:0)
$_20_y                                            -25 	(obj:0)
$_20_z                                             17 	(obj:0)
$_14__0_y                                         -25 	(obj:0)
$_14__0_z                                           3 	(obj:0)
$_18_y                                            -25 	(obj:0)
$_18_z                                             23 	(obj:0)
$_12__0_y                                           7 	(obj:0)
$_12__0_z                                         -25 	(obj:0)
